clingo version 5.7.1
Reading from Calendario.cl
Solving...
Answer: 1
partita(inter,milan,sansiro,26) partita(inter,juventus,sansiro,17) partita(inter,atalanta,sansiro,27) partita(inter,bologna,sansiro,29) partita(inter,roma,sansiro,10) partita(inter,lazio,sansiro,32) partita(inter,fiorentina,sansiro,5) partita(inter,torino,sansiro,24) partita(inter,napoli,sansiro,1) partita(inter,genoa,sansiro,12) partita(inter,monza,sansiro,21) partita(inter,verona,sansiro,36) partita(inter,lecce,sansiro,18) partita(inter,udinese,sansiro,15) partita(inter,cagliari,sansiro,8) partita(inter,empoli,sansiro,22) partita(inter,frosinone,sansiro,3) partita(inter,sassuolo,sansiro,7) partita(inter,salernitana,sansiro,33) partita(milan,inter,sansiro,11) partita(milan,juventus,sansiro,23) partita(milan,atalanta,sansiro,34) partita(milan,bologna,sansiro,20) partita(milan,roma,sansiro,30) partita(milan,lazio,sansiro,35) partita(milan,fiorentina,sansiro,25) partita(milan,torino,sansiro,37) partita(milan,napoli,sansiro,4) partita(milan,genoa,sansiro,16) partita(milan,monza,sansiro,28) partita(milan,verona,sansiro,19) partita(milan,lecce,sansiro,31) partita(milan,udinese,sansiro,14) partita(milan,cagliari,sansiro,2) partita(milan,empoli,sansiro,9) partita(milan,frosinone,sansiro,6) partita(milan,sassuolo,sansiro,38) partita(milan,salernitana,sansiro,13) partita(juventus,inter,olimpicoTorino,35) partita(juventus,milan,olimpicoTorino,15) partita(juventus,atalanta,olimpicoTorino,12) partita(juventus,bologna,olimpicoTorino,37) partita(juventus,roma,olimpicoTorino,8) partita(juventus,lazio,olimpicoTorino,26) partita(juventus,fiorentina,olimpicoTorino,20) partita(juventus,torino,olimpicoTorino,1) partita(juventus,napoli,olimpicoTorino,22) partita(juventus,genoa,olimpicoTorino,38) partita(juventus,monza,olimpicoTorino,31) partita(juventus,verona,olimpicoTorino,2) partita(juventus,lecce,olimpicoTorino,34) partita(juventus,udinese,olimpicoTorino,11) partita(juventus,cagliari,olimpicoTorino,18) partita(juventus,empoli,olimpicoTorino,24) partita(juventus,frosinone,olimpicoTorino,4) partita(juventus,sassuolo,olimpicoTorino,29) partita(juventus,salernitana,olimpicoTorino,7) partita(bologna,inter,dallara,2) partita(bologna,milan,dallara,10) partita(bologna,juventus,dallara,14) partita(bologna,atalanta,dallara,4) partita(bologna,roma,dallara,15) partita(bologna,lazio,dallara,19) partita(bologna,fiorentina,dallara,18) partita(bologna,torino,dallara,22) partita(bologna,napoli,dallara,24) partita(bologna,genoa,dallara,27) partita(bologna,monza,dallara,12) partita(bologna,verona,dallara,34) partita(bologna,lecce,dallara,7) partita(bologna,udinese,dallara,31) partita(bologna,cagliari,dallara,21) partita(bologna,empoli,dallara,38) partita(bologna,frosinone,dallara,35) partita(bologna,sassuolo,dallara,28) partita(bologna,salernitana,dallara,25) partita(atalanta,inter,gewiss,9) partita(atalanta,milan,gewiss,1) partita(atalanta,juventus,gewiss,28) partita(atalanta,bologna,gewiss,33) partita(atalanta,roma,gewiss,31) partita(atalanta,lazio,gewiss,11) partita(atalanta,fiorentina,gewiss,13) partita(atalanta,torino,gewiss,20) partita(atalanta,napoli,gewiss,18) partita(atalanta,genoa,gewiss,6) partita(atalanta,monza,gewiss,30) partita(atalanta,verona,gewiss,17) partita(atalanta,lecce,gewiss,22) partita(atalanta,udinese,gewiss,3) partita(atalanta,cagliari,gewiss,36) partita(atalanta,empoli,gewiss,26) partita(atalanta,frosinone,gewiss,15) partita(atalanta,sassuolo,gewiss,25) partita(atalanta,salernitana,gewiss,35) partita(roma,inter,olimpicoRoma,23) partita(roma,milan,olimpicoRoma,12) partita(roma,juventus,olimpicoRoma,32) partita(roma,atalanta,olimpicoRoma,14) partita(roma,bologna,olimpicoRoma,26) partita(roma,lazio,olimpicoRoma,38) partita(roma,fiorentina,olimpicoRoma,16) partita(roma,torino,olimpicoRoma,11) partita(roma,napoli,olimpicoRoma,3) partita(roma,genoa,olimpicoRoma,9) partita(roma,monza,olimpicoRoma,6) partita(roma,verona,olimpicoRoma,28) partita(roma,lecce,olimpicoRoma,21) partita(roma,udinese,olimpicoRoma,37) partita(roma,cagliari,olimpicoRoma,19) partita(roma,empoli,olimpicoRoma,18) partita(roma,frosinone,olimpicoRoma,29) partita(roma,sassuolo,olimpicoRoma,35) partita(roma,salernitana,olimpicoRoma,5) partita(lazio,inter,olimpicoRoma,4) partita(lazio,milan,olimpicoRoma,7) partita(lazio,juventus,olimpicoRoma,13) partita(lazio,atalanta,olimpicoRoma,24) partita(lazio,bologna,olimpicoRoma,30) partita(lazio,roma,olimpicoRoma,1) partita(lazio,fiorentina,olimpicoRoma,31) partita(lazio,torino,olimpicoRoma,2) partita(lazio,napoli,olimpicoRoma,27) partita(lazio,genoa,olimpicoRoma,8) partita(lazio,monza,olimpicoRoma,33) partita(lazio,verona,olimpicoRoma,25) partita(lazio,lecce,olimpicoRoma,36) partita(lazio,udinese,olimpicoRoma,20) partita(lazio,cagliari,olimpicoRoma,10) partita(lazio,empoli,olimpicoRoma,15) partita(lazio,frosinone,olimpicoRoma,22) partita(lazio,sassuolo,olimpicoRoma,34) partita(lazio,salernitana,olimpicoRoma,17) partita(torino,inter,olimpicoTorino,19) partita(torino,milan,olimpicoTorino,3) partita(torino,juventus,olimpicoTorino,25) partita(torino,atalanta,olimpicoTorino,5) partita(torino,bologna,olimpicoTorino,6) partita(torino,roma,olimpicoTorino,33) partita(torino,lazio,olimpicoTorino,28) partita(torino,fiorentina,olimpicoTorino,32) partita(torino,napoli,olimpicoTorino,21) partita(torino,genoa,olimpicoTorino,23) partita(torino,monza,olimpicoTorino,27) partita(torino,verona,olimpicoTorino,30) partita(torino,lecce,olimpicoTorino,14) partita(torino,udinese,olimpicoTorino,36) partita(torino,cagliari,olimpicoTorino,16) partita(torino,empoli,olimpicoTorino,17) partita(torino,frosinone,olimpicoTorino,10) partita(torino,sassuolo,olimpicoTorino,13) partita(torino,salernitana,olimpicoTorino,9) partita(fiorentina,inter,franchi,37) partita(fiorentina,milan,franchi,17) partita(fiorentina,juventus,franchi,3) partita(fiorentina,atalanta,franchi,29) partita(fiorentina,bologna,franchi,36) partita(fiorentina,roma,franchi,27) partita(fiorentina,lazio,franchi,6) partita(fiorentina,torino,franchi,12) partita(fiorentina,napoli,franchi,34) partita(fiorentina,genoa,franchi,19) partita(fiorentina,monza,franchi,15) partita(fiorentina,verona,franchi,9) partita(fiorentina,lecce,franchi,2) partita(fiorentina,udinese,franchi,8) partita(fiorentina,cagliari,franchi,24) partita(fiorentina,empoli,franchi,33) partita(fiorentina,frosinone,franchi,14) partita(fiorentina,sassuolo,franchi,22) partita(fiorentina,salernitana,franchi,30) partita(napoli,inter,maradona,28) partita(napoli,milan,maradona,32) partita(napoli,juventus,maradona,9) partita(napoli,atalanta,maradona,23) partita(napoli,bologna,maradona,17) partita(napoli,roma,maradona,36) partita(napoli,lazio,maradona,12) partita(napoli,fiorentina,maradona,11) partita(napoli,torino,maradona,8) partita(napoli,genoa,maradona,30) partita(napoli,monza,maradona,35) partita(napoli,verona,maradona,20) partita(napoli,lecce,maradona,5) partita(napoli,udinese,maradona,19) partita(napoli,cagliari,maradona,15) partita(napoli,empoli,maradona,6) partita(napoli,frosinone,maradona,38) partita(napoli,sassuolo,maradona,2) partita(napoli,salernitana,maradona,26) partita(genoa,inter,marassi,34) partita(genoa,milan,marassi,33) partita(genoa,juventus,marassi,5) partita(genoa,atalanta,marassi,21) partita(genoa,bologna,marassi,13) partita(genoa,roma,marassi,24) partita(genoa,lazio,marassi,29) partita(genoa,fiorentina,marassi,26) partita(genoa,torino,marassi,18) partita(genoa,napoli,marassi,7) partita(genoa,monza,marassi,36) partita(genoa,verona,marassi,4) partita(genoa,lecce,marassi,17) partita(genoa,udinese,marassi,10) partita(genoa,cagliari,marassi,1) partita(genoa,empoli,marassi,20) partita(genoa,frosinone,marassi,11) partita(genoa,sassuolo,marassi,31) partita(genoa,salernitana,marassi,15) partita(monza,inter,upower,16) partita(monza,milan,upower,5) partita(monza,juventus,upower,10) partita(monza,atalanta,upower,2) partita(monza,bologna,upower,32) partita(monza,roma,upower,34) partita(monza,lazio,upower,9) partita(monza,fiorentina,upower,23) partita(monza,torino,upower,7) partita(monza,napoli,upower,13) partita(monza,genoa,upower,14) partita(monza,verona,upower,26) partita(monza,lecce,upower,25) partita(monza,udinese,upower,17) partita(monza,cagliari,upower,37) partita(monza,empoli,upower,29) partita(monza,frosinone,upower,20) partita(monza,sassuolo,upower,19) partita(monza,salernitana,upower,38) partita(verona,inter,bentegodi,13) partita(verona,milan,bentegodi,24) partita(verona,juventus,bentegodi,27) partita(verona,atalanta,bentegodi,38) partita(verona,bologna,bentegodi,5) partita(verona,roma,bentegodi,7) partita(verona,lazio,bentegodi,16) partita(verona,fiorentina,bentegodi,35) partita(verona,torino,bentegodi,15) partita(verona,napoli,bentegodi,10) partita(verona,genoa,bentegodi,22) partita(verona,monza,bentegodi,18) partita(verona,lecce,bentegodi,37) partita(verona,udinese,bentegodi,1) partita(verona,cagliari,bentegodi,29) partita(verona,empoli,bentegodi,3) partita(verona,frosinone,bentegodi,32) partita(verona,sassuolo,bentegodi,21) partita(verona,salernitana,bentegodi,31) partita(lecce,inter,viadelmare,30) partita(lecce,milan,viadelmare,8) partita(lecce,juventus,viadelmare,19) partita(lecce,atalanta,viadelmare,16) partita(lecce,bologna,viadelmare,23) partita(lecce,roma,viadelmare,4) partita(lecce,lazio,viadelmare,3) partita(lecce,fiorentina,viadelmare,38) partita(lecce,torino,viadelmare,35) partita(lecce,napoli,viadelmare,29) partita(lecce,genoa,viadelmare,32) partita(lecce,monza,viadelmare,11) partita(lecce,verona,viadelmare,6) partita(lecce,udinese,viadelmare,24) partita(lecce,cagliari,viadelmare,27) partita(lecce,empoli,viadelmare,12) partita(lecce,frosinone,viadelmare,1) partita(lecce,sassuolo,viadelmare,15) partita(lecce,salernitana,viadelmare,20) partita(udinese,inter,friuli,38) partita(udinese,milan,friuli,29) partita(udinese,juventus,friuli,21) partita(udinese,atalanta,friuli,32) partita(udinese,bologna,friuli,16) partita(udinese,roma,friuli,2) partita(udinese,lazio,friuli,5) partita(udinese,fiorentina,friuli,28) partita(udinese,torino,friuli,4) partita(udinese,napoli,friuli,25) partita(udinese,genoa,friuli,35) partita(udinese,monza,friuli,22) partita(udinese,verona,friuli,33) partita(udinese,lecce,friuli,9) partita(udinese,cagliari,friuli,26) partita(udinese,empoli,friuli,13) partita(udinese,frosinone,friuli,7) partita(udinese,sassuolo,friuli,12) partita(udinese,salernitana,friuli,18) partita(cagliari,inter,unipol,31) partita(cagliari,milan,unipol,22) partita(cagliari,juventus,unipol,30) partita(cagliari,atalanta,unipol,7) partita(cagliari,bologna,unipol,11) partita(cagliari,roma,unipol,20) partita(cagliari,lazio,unipol,23) partita(cagliari,fiorentina,unipol,4) partita(cagliari,torino,unipol,38) partita(cagliari,napoli,unipol,33) partita(cagliari,genoa,unipol,25) partita(cagliari,monza,unipol,3) partita(cagliari,verona,unipol,14) partita(cagliari,lecce,unipol,13) partita(cagliari,udinese,unipol,6) partita(cagliari,empoli,unipol,35) partita(cagliari,frosinone,unipol,17) partita(cagliari,sassuolo,unipol,9) partita(cagliari,salernitana,unipol,28) partita(empoli,inter,castellani,14) partita(empoli,milan,castellani,21) partita(empoli,juventus,castellani,16) partita(empoli,atalanta,castellani,10) partita(empoli,bologna,castellani,8) partita(empoli,roma,castellani,25) partita(empoli,lazio,castellani,37) partita(empoli,fiorentina,castellani,7) partita(empoli,torino,castellani,34) partita(empoli,napoli,castellani,31) partita(empoli,genoa,castellani,2) partita(empoli,monza,castellani,1) partita(empoli,verona,castellani,23) partita(empoli,lecce,castellani,28) partita(empoli,udinese,castellani,27) partita(empoli,cagliari,castellani,5) partita(empoli,frosinone,castellani,19) partita(empoli,sassuolo,castellani,4) partita(empoli,salernitana,castellani,11) partita(frosinone,inter,stirpe,25) partita(frosinone,milan,stirpe,36) partita(frosinone,juventus,stirpe,33) partita(frosinone,atalanta,stirpe,37) partita(frosinone,bologna,stirpe,9) partita(frosinone,roma,stirpe,13) partita(frosinone,lazio,stirpe,18) partita(frosinone,fiorentina,stirpe,21) partita(frosinone,torino,stirpe,31) partita(frosinone,napoli,stirpe,16) partita(frosinone,genoa,stirpe,28) partita(frosinone,monza,stirpe,8) partita(frosinone,verona,stirpe,12) partita(frosinone,lecce,stirpe,26) partita(frosinone,udinese,stirpe,23) partita(frosinone,cagliari,stirpe,34) partita(frosinone,empoli,stirpe,30) partita(frosinone,sassuolo,stirpe,5) partita(frosinone,salernitana,stirpe,2) partita(sassuolo,inter,mapei,20) partita(sassuolo,milan,mapei,18) partita(sassuolo,juventus,mapei,6) partita(sassuolo,atalanta,mapei,8) partita(sassuolo,bologna,mapei,1) partita(sassuolo,roma,mapei,17) partita(sassuolo,lazio,mapei,14) partita(sassuolo,fiorentina,mapei,10) partita(sassuolo,torino,mapei,26) partita(sassuolo,napoli,mapei,37) partita(sassuolo,genoa,mapei,3) partita(sassuolo,monza,mapei,24) partita(sassuolo,verona,mapei,11) partita(sassuolo,lecce,mapei,33) partita(sassuolo,udinese,mapei,30) partita(sassuolo,cagliari,mapei,32) partita(sassuolo,empoli,mapei,36) partita(sassuolo,frosinone,mapei,27) partita(sassuolo,salernitana,mapei,23) partita(salernitana,inter,arechi,6) partita(salernitana,milan,arechi,27) partita(salernitana,juventus,arechi,36) partita(salernitana,atalanta,arechi,19) partita(salernitana,bologna,arechi,3) partita(salernitana,roma,arechi,22) partita(salernitana,lazio,arechi,21) partita(salernitana,fiorentina,arechi,1) partita(salernitana,torino,arechi,29) partita(salernitana,napoli,arechi,14) partita(salernitana,genoa,arechi,37) partita(salernitana,monza,arechi,4) partita(salernitana,verona,arechi,8) partita(salernitana,lecce,arechi,10) partita(salernitana,udinese,arechi,34) partita(salernitana,cagliari,arechi,12) partita(salernitana,empoli,arechi,32) partita(salernitana,frosinone,arechi,24) partita(salernitana,sassuolo,arechi,16)
SATISFIABLE

Models       : 1+
Calls        : 1
Time         : 1.744s (Solving: 1.31s 1st Model: 1.31s Unsat: 0.00s)
CPU Time     : 1.744s
